p cnf 67 689
c #### one port of a gate receives one connection 0
-1 -2 0
-1 -3 0
-1 -4 0
-5 -1 0
-3 -2 0
-5 -3 0
-5 -4 0
-6 -1 0
-4 -2 0
-6 -5 0
-4 -3 0
-6 -4 0
-7 -8 0
-7 -9 0
-7 -10 0
-7 -11 0
-12 -7 0
-9 -8 0
-12 -9 0
-12 -10 0
-12 -11 0
-13 -7 0
-10 -8 0
-13 -12 0
-10 -9 0
-13 -10 0
-13 -11 0
-14 -7 0
-11 -8 0
-14 -12 0
-11 -9 0
-14 -13 0
-11 -10 0
-14 -11 0
1 5 6 0
2 3 4 0
7 12 13 14 0
8 9 10 11 0
c #### one output of the circuit receives one connection 0
-15 -16 0
-17 -16 0
-17 -15 0
-18 -16 0
-18 -15 0
-18 -17 0
-19 -16 0
-19 -15 0
-19 -17 0
-19 -18 0
16 15 17 18 19 0
c #### input gate has input value 0
-20 0
21 0
-22 0
23 0
-24 0
25 0
-26 0
27 0
-28 0
-29 0
30 0
31 0
-32 0
-33 0
34 0
35 0
-36 0
-37 0
-38 0
-39 0
40 0
41 0
42 0
43 0
c #### internal gates produce calculated value 0
-5 -2 -28 -20 -44 45 0
-5 -2 -28 -20 44 -45 0
-5 -2 -28 20 -44 46 0
-5 -2 -28 20 44 -46 0
-5 -2 28 -20 -44 47 0
-5 -2 28 -20 44 -47 0
-5 -2 28 20 -44 48 0
-5 -2 28 20 44 -48 0
-5 -2 -29 -21 -49 45 0
-5 -2 -29 -21 49 -45 0
-5 -2 -29 21 -49 46 0
-5 -2 -29 21 49 -46 0
-5 -2 29 -21 -49 47 0
-5 -2 29 -21 49 -47 0
-5 -2 29 21 -49 48 0
-5 -2 29 21 49 -48 0
-5 -2 -30 -22 -50 45 0
-5 -2 -30 -22 50 -45 0
-5 -2 -30 22 -50 46 0
-5 -2 -30 22 50 -46 0
-5 -2 30 -22 -50 47 0
-5 -2 30 -22 50 -47 0
-5 -2 30 22 -50 48 0
-5 -2 30 22 50 -48 0
-5 -2 -31 -23 -51 45 0
-5 -2 -31 -23 51 -45 0
-5 -2 -31 23 -51 46 0
-5 -2 -31 23 51 -46 0
-5 -2 31 -23 -51 47 0
-5 -2 31 -23 51 -47 0
-5 -2 31 23 -51 48 0
-5 -2 31 23 51 -48 0
-5 -2 -32 -24 -52 45 0
-5 -2 -32 -24 52 -45 0
-5 -2 -32 24 -52 46 0
-5 -2 -32 24 52 -46 0
-5 -2 32 -24 -52 47 0
-5 -2 32 -24 52 -47 0
-5 -2 32 24 -52 48 0
-5 -2 32 24 52 -48 0
-5 -2 -33 -25 -53 45 0
-5 -2 -33 -25 53 -45 0
-5 -2 -33 25 -53 46 0
-5 -2 -33 25 53 -46 0
-5 -2 33 -25 -53 47 0
-5 -2 33 -25 53 -47 0
-5 -2 33 25 -53 48 0
-5 -2 33 25 53 -48 0
-5 -2 -34 -26 -54 45 0
-5 -2 -34 -26 54 -45 0
-5 -2 -34 26 -54 46 0
-5 -2 -34 26 54 -46 0
-5 -2 34 -26 -54 47 0
-5 -2 34 -26 54 -47 0
-5 -2 34 26 -54 48 0
-5 -2 34 26 54 -48 0
-5 -2 -35 -27 -55 45 0
-5 -2 -35 -27 55 -45 0
-5 -2 -35 27 -55 46 0
-5 -2 -35 27 55 -46 0
-5 -2 35 -27 -55 47 0
-5 -2 35 -27 55 -47 0
-5 -2 35 27 -55 48 0
-5 -2 35 27 55 -48 0
-6 -2 -36 -20 -44 45 0
-6 -2 -36 -20 44 -45 0
-6 -2 -36 20 -44 46 0
-6 -2 -36 20 44 -46 0
-6 -2 36 -20 -44 47 0
-6 -2 36 -20 44 -47 0
-6 -2 36 20 -44 48 0
-6 -2 36 20 44 -48 0
-6 -2 -37 -21 -49 45 0
-6 -2 -37 -21 49 -45 0
-6 -2 -37 21 -49 46 0
-6 -2 -37 21 49 -46 0
-6 -2 37 -21 -49 47 0
-6 -2 37 -21 49 -47 0
-6 -2 37 21 -49 48 0
-6 -2 37 21 49 -48 0
-6 -2 -38 -22 -50 45 0
-6 -2 -38 -22 50 -45 0
-6 -2 -38 22 -50 46 0
-6 -2 -38 22 50 -46 0
-6 -2 38 -22 -50 47 0
-6 -2 38 -22 50 -47 0
-6 -2 38 22 -50 48 0
-6 -2 38 22 50 -48 0
-6 -2 -39 -23 -51 45 0
-6 -2 -39 -23 51 -45 0
-6 -2 -39 23 -51 46 0
-6 -2 -39 23 51 -46 0
-6 -2 39 -23 -51 47 0
-6 -2 39 -23 51 -47 0
-6 -2 39 23 -51 48 0
-6 -2 39 23 51 -48 0
-6 -2 -40 -24 -52 45 0
-6 -2 -40 -24 52 -45 0
-6 -2 -40 24 -52 46 0
-6 -2 -40 24 52 -46 0
-6 -2 40 -24 -52 47 0
-6 -2 40 -24 52 -47 0
-6 -2 40 24 -52 48 0
-6 -2 40 24 52 -48 0
-6 -2 -41 -25 -53 45 0
-6 -2 -41 -25 53 -45 0
-6 -2 -41 25 -53 46 0
-6 -2 -41 25 53 -46 0
-6 -2 41 -25 -53 47 0
-6 -2 41 -25 53 -47 0
-6 -2 41 25 -53 48 0
-6 -2 41 25 53 -48 0
-6 -2 -42 -26 -54 45 0
-6 -2 -42 -26 54 -45 0
-6 -2 -42 26 -54 46 0
-6 -2 -42 26 54 -46 0
-6 -2 42 -26 -54 47 0
-6 -2 42 -26 54 -47 0
-6 -2 42 26 -54 48 0
-6 -2 42 26 54 -48 0
-6 -2 -43 -27 -55 45 0
-6 -2 -43 -27 55 -45 0
-6 -2 -43 27 -55 46 0
-6 -2 -43 27 55 -46 0
-6 -2 43 -27 -55 47 0
-6 -2 43 -27 55 -47 0
-6 -2 43 27 -55 48 0
-6 -2 43 27 55 -48 0
-6 -3 -36 -28 -44 45 0
-6 -3 -36 -28 44 -45 0
-6 -3 -36 28 -44 46 0
-6 -3 -36 28 44 -46 0
-6 -3 36 -28 -44 47 0
-6 -3 36 -28 44 -47 0
-6 -3 36 28 -44 48 0
-6 -3 36 28 44 -48 0
-6 -3 -37 -29 -49 45 0
-6 -3 -37 -29 49 -45 0
-6 -3 -37 29 -49 46 0
-6 -3 -37 29 49 -46 0
-6 -3 37 -29 -49 47 0
-6 -3 37 -29 49 -47 0
-6 -3 37 29 -49 48 0
-6 -3 37 29 49 -48 0
-6 -3 -38 -30 -50 45 0
-6 -3 -38 -30 50 -45 0
-6 -3 -38 30 -50 46 0
-6 -3 -38 30 50 -46 0
-6 -3 38 -30 -50 47 0
-6 -3 38 -30 50 -47 0
-6 -3 38 30 -50 48 0
-6 -3 38 30 50 -48 0
-6 -3 -39 -31 -51 45 0
-6 -3 -39 -31 51 -45 0
-6 -3 -39 31 -51 46 0
-6 -3 -39 31 51 -46 0
-6 -3 39 -31 -51 47 0
-6 -3 39 -31 51 -47 0
-6 -3 39 31 -51 48 0
-6 -3 39 31 51 -48 0
-6 -3 -40 -32 -52 45 0
-6 -3 -40 -32 52 -45 0
-6 -3 -40 32 -52 46 0
-6 -3 -40 32 52 -46 0
-6 -3 40 -32 -52 47 0
-6 -3 40 -32 52 -47 0
-6 -3 40 32 -52 48 0
-6 -3 40 32 52 -48 0
-6 -3 -41 -33 -53 45 0
-6 -3 -41 -33 53 -45 0
-6 -3 -41 33 -53 46 0
-6 -3 -41 33 53 -46 0
-6 -3 41 -33 -53 47 0
-6 -3 41 -33 53 -47 0
-6 -3 41 33 -53 48 0
-6 -3 41 33 53 -48 0
-6 -3 -42 -34 -54 45 0
-6 -3 -42 -34 54 -45 0
-6 -3 -42 34 -54 46 0
-6 -3 -42 34 54 -46 0
-6 -3 42 -34 -54 47 0
-6 -3 42 -34 54 -47 0
-6 -3 42 34 -54 48 0
-6 -3 42 34 54 -48 0
-6 -3 -43 -35 -55 45 0
-6 -3 -43 -35 55 -45 0
-6 -3 -43 35 -55 46 0
-6 -3 -43 35 55 -46 0
-6 -3 43 -35 -55 47 0
-6 -3 43 -35 55 -47 0
-6 -3 43 35 -55 48 0
-6 -3 43 35 55 -48 0
-12 -8 -28 -20 -56 57 0
-12 -8 -28 -20 56 -57 0
-12 -8 -28 20 -56 58 0
-12 -8 -28 20 56 -58 0
-12 -8 28 -20 -56 59 0
-12 -8 28 -20 56 -59 0
-12 -8 28 20 -56 60 0
-12 -8 28 20 56 -60 0
-12 -8 -29 -21 -61 57 0
-12 -8 -29 -21 61 -57 0
-12 -8 -29 21 -61 58 0
-12 -8 -29 21 61 -58 0
-12 -8 29 -21 -61 59 0
-12 -8 29 -21 61 -59 0
-12 -8 29 21 -61 60 0
-12 -8 29 21 61 -60 0
-12 -8 -30 -22 -62 57 0
-12 -8 -30 -22 62 -57 0
-12 -8 -30 22 -62 58 0
-12 -8 -30 22 62 -58 0
-12 -8 30 -22 -62 59 0
-12 -8 30 -22 62 -59 0
-12 -8 30 22 -62 60 0
-12 -8 30 22 62 -60 0
-12 -8 -31 -23 -63 57 0
-12 -8 -31 -23 63 -57 0
-12 -8 -31 23 -63 58 0
-12 -8 -31 23 63 -58 0
-12 -8 31 -23 -63 59 0
-12 -8 31 -23 63 -59 0
-12 -8 31 23 -63 60 0
-12 -8 31 23 63 -60 0
-12 -8 -32 -24 -64 57 0
-12 -8 -32 -24 64 -57 0
-12 -8 -32 24 -64 58 0
-12 -8 -32 24 64 -58 0
-12 -8 32 -24 -64 59 0
-12 -8 32 -24 64 -59 0
-12 -8 32 24 -64 60 0
-12 -8 32 24 64 -60 0
-12 -8 -33 -25 -65 57 0
-12 -8 -33 -25 65 -57 0
-12 -8 -33 25 -65 58 0
-12 -8 -33 25 65 -58 0
-12 -8 33 -25 -65 59 0
-12 -8 33 -25 65 -59 0
-12 -8 33 25 -65 60 0
-12 -8 33 25 65 -60 0
-12 -8 -34 -26 -66 57 0
-12 -8 -34 -26 66 -57 0
-12 -8 -34 26 -66 58 0
-12 -8 -34 26 66 -58 0
-12 -8 34 -26 -66 59 0
-12 -8 34 -26 66 -59 0
-12 -8 34 26 -66 60 0
-12 -8 34 26 66 -60 0
-12 -8 -35 -27 -67 57 0
-12 -8 -35 -27 67 -57 0
-12 -8 -35 27 -67 58 0
-12 -8 -35 27 67 -58 0
-12 -8 35 -27 -67 59 0
-12 -8 35 -27 67 -59 0
-12 -8 35 27 -67 60 0
-12 -8 35 27 67 -60 0
-13 -8 -36 -20 -56 57 0
-13 -8 -36 -20 56 -57 0
-13 -8 -36 20 -56 58 0
-13 -8 -36 20 56 -58 0
-13 -8 36 -20 -56 59 0
-13 -8 36 -20 56 -59 0
-13 -8 36 20 -56 60 0
-13 -8 36 20 56 -60 0
-13 -8 -37 -21 -61 57 0
-13 -8 -37 -21 61 -57 0
-13 -8 -37 21 -61 58 0
-13 -8 -37 21 61 -58 0
-13 -8 37 -21 -61 59 0
-13 -8 37 -21 61 -59 0
-13 -8 37 21 -61 60 0
-13 -8 37 21 61 -60 0
-13 -8 -38 -22 -62 57 0
-13 -8 -38 -22 62 -57 0
-13 -8 -38 22 -62 58 0
-13 -8 -38 22 62 -58 0
-13 -8 38 -22 -62 59 0
-13 -8 38 -22 62 -59 0
-13 -8 38 22 -62 60 0
-13 -8 38 22 62 -60 0
-13 -8 -39 -23 -63 57 0
-13 -8 -39 -23 63 -57 0
-13 -8 -39 23 -63 58 0
-13 -8 -39 23 63 -58 0
-13 -8 39 -23 -63 59 0
-13 -8 39 -23 63 -59 0
-13 -8 39 23 -63 60 0
-13 -8 39 23 63 -60 0
-13 -8 -40 -24 -64 57 0
-13 -8 -40 -24 64 -57 0
-13 -8 -40 24 -64 58 0
-13 -8 -40 24 64 -58 0
-13 -8 40 -24 -64 59 0
-13 -8 40 -24 64 -59 0
-13 -8 40 24 -64 60 0
-13 -8 40 24 64 -60 0
-13 -8 -41 -25 -65 57 0
-13 -8 -41 -25 65 -57 0
-13 -8 -41 25 -65 58 0
-13 -8 -41 25 65 -58 0
-13 -8 41 -25 -65 59 0
-13 -8 41 -25 65 -59 0
-13 -8 41 25 -65 60 0
-13 -8 41 25 65 -60 0
-13 -8 -42 -26 -66 57 0
-13 -8 -42 -26 66 -57 0
-13 -8 -42 26 -66 58 0
-13 -8 -42 26 66 -58 0
-13 -8 42 -26 -66 59 0
-13 -8 42 -26 66 -59 0
-13 -8 42 26 -66 60 0
-13 -8 42 26 66 -60 0
-13 -8 -43 -27 -67 57 0
-13 -8 -43 -27 67 -57 0
-13 -8 -43 27 -67 58 0
-13 -8 -43 27 67 -58 0
-13 -8 43 -27 -67 59 0
-13 -8 43 -27 67 -59 0
-13 -8 43 27 -67 60 0
-13 -8 43 27 67 -60 0
-13 -9 -36 -28 -56 57 0
-13 -9 -36 -28 56 -57 0
-13 -9 -36 28 -56 58 0
-13 -9 -36 28 56 -58 0
-13 -9 36 -28 -56 59 0
-13 -9 36 -28 56 -59 0
-13 -9 36 28 -56 60 0
-13 -9 36 28 56 -60 0
-13 -9 -37 -29 -61 57 0
-13 -9 -37 -29 61 -57 0
-13 -9 -37 29 -61 58 0
-13 -9 -37 29 61 -58 0
-13 -9 37 -29 -61 59 0
-13 -9 37 -29 61 -59 0
-13 -9 37 29 -61 60 0
-13 -9 37 29 61 -60 0
-13 -9 -38 -30 -62 57 0
-13 -9 -38 -30 62 -57 0
-13 -9 -38 30 -62 58 0
-13 -9 -38 30 62 -58 0
-13 -9 38 -30 -62 59 0
-13 -9 38 -30 62 -59 0
-13 -9 38 30 -62 60 0
-13 -9 38 30 62 -60 0
-13 -9 -39 -31 -63 57 0
-13 -9 -39 -31 63 -57 0
-13 -9 -39 31 -63 58 0
-13 -9 -39 31 63 -58 0
-13 -9 39 -31 -63 59 0
-13 -9 39 -31 63 -59 0
-13 -9 39 31 -63 60 0
-13 -9 39 31 63 -60 0
-13 -9 -40 -32 -64 57 0
-13 -9 -40 -32 64 -57 0
-13 -9 -40 32 -64 58 0
-13 -9 -40 32 64 -58 0
-13 -9 40 -32 -64 59 0
-13 -9 40 -32 64 -59 0
-13 -9 40 32 -64 60 0
-13 -9 40 32 64 -60 0
-13 -9 -41 -33 -65 57 0
-13 -9 -41 -33 65 -57 0
-13 -9 -41 33 -65 58 0
-13 -9 -41 33 65 -58 0
-13 -9 41 -33 -65 59 0
-13 -9 41 -33 65 -59 0
-13 -9 41 33 -65 60 0
-13 -9 41 33 65 -60 0
-13 -9 -42 -34 -66 57 0
-13 -9 -42 -34 66 -57 0
-13 -9 -42 34 -66 58 0
-13 -9 -42 34 66 -58 0
-13 -9 42 -34 -66 59 0
-13 -9 42 -34 66 -59 0
-13 -9 42 34 -66 60 0
-13 -9 42 34 66 -60 0
-13 -9 -43 -35 -67 57 0
-13 -9 -43 -35 67 -57 0
-13 -9 -43 35 -67 58 0
-13 -9 -43 35 67 -58 0
-13 -9 43 -35 -67 59 0
-13 -9 43 -35 67 -59 0
-13 -9 43 35 -67 60 0
-13 -9 43 35 67 -60 0
-14 -8 -44 -20 -56 57 0
-14 -8 -44 -20 56 -57 0
-14 -8 -44 20 -56 58 0
-14 -8 -44 20 56 -58 0
-14 -8 44 -20 -56 59 0
-14 -8 44 -20 56 -59 0
-14 -8 44 20 -56 60 0
-14 -8 44 20 56 -60 0
-14 -8 -49 -21 -61 57 0
-14 -8 -49 -21 61 -57 0
-14 -8 -49 21 -61 58 0
-14 -8 -49 21 61 -58 0
-14 -8 49 -21 -61 59 0
-14 -8 49 -21 61 -59 0
-14 -8 49 21 -61 60 0
-14 -8 49 21 61 -60 0
-14 -8 -50 -22 -62 57 0
-14 -8 -50 -22 62 -57 0
-14 -8 -50 22 -62 58 0
-14 -8 -50 22 62 -58 0
-14 -8 50 -22 -62 59 0
-14 -8 50 -22 62 -59 0
-14 -8 50 22 -62 60 0
-14 -8 50 22 62 -60 0
-14 -8 -51 -23 -63 57 0
-14 -8 -51 -23 63 -57 0
-14 -8 -51 23 -63 58 0
-14 -8 -51 23 63 -58 0
-14 -8 51 -23 -63 59 0
-14 -8 51 -23 63 -59 0
-14 -8 51 23 -63 60 0
-14 -8 51 23 63 -60 0
-14 -8 -52 -24 -64 57 0
-14 -8 -52 -24 64 -57 0
-14 -8 -52 24 -64 58 0
-14 -8 -52 24 64 -58 0
-14 -8 52 -24 -64 59 0
-14 -8 52 -24 64 -59 0
-14 -8 52 24 -64 60 0
-14 -8 52 24 64 -60 0
-14 -8 -53 -25 -65 57 0
-14 -8 -53 -25 65 -57 0
-14 -8 -53 25 -65 58 0
-14 -8 -53 25 65 -58 0
-14 -8 53 -25 -65 59 0
-14 -8 53 -25 65 -59 0
-14 -8 53 25 -65 60 0
-14 -8 53 25 65 -60 0
-14 -8 -54 -26 -66 57 0
-14 -8 -54 -26 66 -57 0
-14 -8 -54 26 -66 58 0
-14 -8 -54 26 66 -58 0
-14 -8 54 -26 -66 59 0
-14 -8 54 -26 66 -59 0
-14 -8 54 26 -66 60 0
-14 -8 54 26 66 -60 0
-14 -8 -55 -27 -67 57 0
-14 -8 -55 -27 67 -57 0
-14 -8 -55 27 -67 58 0
-14 -8 -55 27 67 -58 0
-14 -8 55 -27 -67 59 0
-14 -8 55 -27 67 -59 0
-14 -8 55 27 -67 60 0
-14 -8 55 27 67 -60 0
-14 -9 -44 -28 -56 57 0
-14 -9 -44 -28 56 -57 0
-14 -9 -44 28 -56 58 0
-14 -9 -44 28 56 -58 0
-14 -9 44 -28 -56 59 0
-14 -9 44 -28 56 -59 0
-14 -9 44 28 -56 60 0
-14 -9 44 28 56 -60 0
-14 -9 -49 -29 -61 57 0
-14 -9 -49 -29 61 -57 0
-14 -9 -49 29 -61 58 0
-14 -9 -49 29 61 -58 0
-14 -9 49 -29 -61 59 0
-14 -9 49 -29 61 -59 0
-14 -9 49 29 -61 60 0
-14 -9 49 29 61 -60 0
-14 -9 -50 -30 -62 57 0
-14 -9 -50 -30 62 -57 0
-14 -9 -50 30 -62 58 0
-14 -9 -50 30 62 -58 0
-14 -9 50 -30 -62 59 0
-14 -9 50 -30 62 -59 0
-14 -9 50 30 -62 60 0
-14 -9 50 30 62 -60 0
-14 -9 -51 -31 -63 57 0
-14 -9 -51 -31 63 -57 0
-14 -9 -51 31 -63 58 0
-14 -9 -51 31 63 -58 0
-14 -9 51 -31 -63 59 0
-14 -9 51 -31 63 -59 0
-14 -9 51 31 -63 60 0
-14 -9 51 31 63 -60 0
-14 -9 -52 -32 -64 57 0
-14 -9 -52 -32 64 -57 0
-14 -9 -52 32 -64 58 0
-14 -9 -52 32 64 -58 0
-14 -9 52 -32 -64 59 0
-14 -9 52 -32 64 -59 0
-14 -9 52 32 -64 60 0
-14 -9 52 32 64 -60 0
-14 -9 -53 -33 -65 57 0
-14 -9 -53 -33 65 -57 0
-14 -9 -53 33 -65 58 0
-14 -9 -53 33 65 -58 0
-14 -9 53 -33 -65 59 0
-14 -9 53 -33 65 -59 0
-14 -9 53 33 -65 60 0
-14 -9 53 33 65 -60 0
-14 -9 -54 -34 -66 57 0
-14 -9 -54 -34 66 -57 0
-14 -9 -54 34 -66 58 0
-14 -9 -54 34 66 -58 0
-14 -9 54 -34 -66 59 0
-14 -9 54 -34 66 -59 0
-14 -9 54 34 -66 60 0
-14 -9 54 34 66 -60 0
-14 -9 -55 -35 -67 57 0
-14 -9 -55 -35 67 -57 0
-14 -9 -55 35 -67 58 0
-14 -9 -55 35 67 -58 0
-14 -9 55 -35 -67 59 0
-14 -9 55 -35 67 -59 0
-14 -9 55 35 -67 60 0
-14 -9 55 35 67 -60 0
-14 -10 -44 -36 -56 57 0
-14 -10 -44 -36 56 -57 0
-14 -10 -44 36 -56 58 0
-14 -10 -44 36 56 -58 0
-14 -10 44 -36 -56 59 0
-14 -10 44 -36 56 -59 0
-14 -10 44 36 -56 60 0
-14 -10 44 36 56 -60 0
-14 -10 -49 -37 -61 57 0
-14 -10 -49 -37 61 -57 0
-14 -10 -49 37 -61 58 0
-14 -10 -49 37 61 -58 0
-14 -10 49 -37 -61 59 0
-14 -10 49 -37 61 -59 0
-14 -10 49 37 -61 60 0
-14 -10 49 37 61 -60 0
-14 -10 -50 -38 -62 57 0
-14 -10 -50 -38 62 -57 0
-14 -10 -50 38 -62 58 0
-14 -10 -50 38 62 -58 0
-14 -10 50 -38 -62 59 0
-14 -10 50 -38 62 -59 0
-14 -10 50 38 -62 60 0
-14 -10 50 38 62 -60 0
-14 -10 -51 -39 -63 57 0
-14 -10 -51 -39 63 -57 0
-14 -10 -51 39 -63 58 0
-14 -10 -51 39 63 -58 0
-14 -10 51 -39 -63 59 0
-14 -10 51 -39 63 -59 0
-14 -10 51 39 -63 60 0
-14 -10 51 39 63 -60 0
-14 -10 -52 -40 -64 57 0
-14 -10 -52 -40 64 -57 0
-14 -10 -52 40 -64 58 0
-14 -10 -52 40 64 -58 0
-14 -10 52 -40 -64 59 0
-14 -10 52 -40 64 -59 0
-14 -10 52 40 -64 60 0
-14 -10 52 40 64 -60 0
-14 -10 -53 -41 -65 57 0
-14 -10 -53 -41 65 -57 0
-14 -10 -53 41 -65 58 0
-14 -10 -53 41 65 -58 0
-14 -10 53 -41 -65 59 0
-14 -10 53 -41 65 -59 0
-14 -10 53 41 -65 60 0
-14 -10 53 41 65 -60 0
-14 -10 -54 -42 -66 57 0
-14 -10 -54 -42 66 -57 0
-14 -10 -54 42 -66 58 0
-14 -10 -54 42 66 -58 0
-14 -10 54 -42 -66 59 0
-14 -10 54 -42 66 -59 0
-14 -10 54 42 -66 60 0
-14 -10 54 42 66 -60 0
-14 -10 -55 -43 -67 57 0
-14 -10 -55 -43 67 -57 0
-14 -10 -55 43 -67 58 0
-14 -10 -55 43 67 -58 0
-14 -10 55 -43 -67 59 0
-14 -10 55 -43 67 -59 0
-14 -10 55 43 -67 60 0
-14 -10 55 43 67 -60 0
c #### outputs match truth table 0
-16 -20 0
-15 -28 0
-17 -36 0
-18 -44 0
-19 -56 0
-16 -21 0
-15 -29 0
-17 -37 0
-18 -49 0
-19 -61 0
-16 -22 0
-15 -30 0
-17 -38 0
-18 -50 0
-19 -62 0
-16 -23 0
-15 -31 0
-17 -39 0
-18 -51 0
-19 -63 0
-16 -24 0
-15 -32 0
-17 -40 0
-18 -52 0
-19 -64 0
-16 -25 0
-15 -33 0
-17 -41 0
-18 -53 0
-19 -65 0
-16 -26 0
-15 -34 0
-17 -42 0
-18 -54 0
-19 -66 0
-16 27 0
-15 35 0
-17 43 0
-18 55 0
-19 67 0
c #### target truth table 0
c #### {"in":0,"out":0} 0
c #### {"in":1,"out":0} 0
c #### {"in":2,"out":0} 0
c #### {"in":3,"out":0} 0
c #### {"in":4,"out":0} 0
c #### {"in":5,"out":0} 0
c #### {"in":6,"out":0} 0
c #### {"in":7,"out":1} 0
c #### variable 0
c #### c_3_0_0 0 0
c #### c_3_1_0 1 0
c #### c_3_1_1 2 0
c #### c_3_1_2 3 0
c #### c_3_0_1 4 0
c #### c_3_0_2 5 0
c #### c_4_0_0 6 0
c #### c_4_1_0 7 0
c #### c_4_1_1 8 0
c #### c_4_1_2 9 0
c #### c_4_1_3 10 0
c #### c_4_0_1 11 0
c #### c_4_0_2 12 0
c #### c_4_0_3 13 0
c #### o_1_0 14 0
c #### o_0_0 15 0
c #### o_2_0 16 0
c #### o_3_0 17 0
c #### o_4_0 18 0
c #### v_0_0 19 0
c #### v_0_1 20 0
c #### v_0_2 21 0
c #### v_0_3 22 0
c #### v_0_4 23 0
c #### v_0_5 24 0
c #### v_0_6 25 0
c #### v_0_7 26 0
c #### v_1_0 27 0
c #### v_1_1 28 0
c #### v_1_2 29 0
c #### v_1_3 30 0
c #### v_1_4 31 0
c #### v_1_5 32 0
c #### v_1_6 33 0
c #### v_1_7 34 0
c #### v_2_0 35 0
c #### v_2_1 36 0
c #### v_2_2 37 0
c #### v_2_3 38 0
c #### v_2_4 39 0
c #### v_2_5 40 0
c #### v_2_6 41 0
c #### v_2_7 42 0
c #### v_3_0 43 0
c #### t_3_0_0 44 0
c #### t_3_0_1 45 0
c #### t_3_1_0 46 0
c #### t_3_1_1 47 0
c #### v_3_1 48 0
c #### v_3_2 49 0
c #### v_3_3 50 0
c #### v_3_4 51 0
c #### v_3_5 52 0
c #### v_3_6 53 0
c #### v_3_7 54 0
c #### v_4_0 55 0
c #### t_4_0_0 56 0
c #### t_4_0_1 57 0
c #### t_4_1_0 58 0
c #### t_4_1_1 59 0
c #### v_4_1 60 0
c #### v_4_2 61 0
c #### v_4_3 62 0
c #### v_4_4 63 0
c #### v_4_5 64 0
c #### v_4_6 65 0
c #### v_4_7 66 0
